\ Model ajuste
\ LP format - for model browsing. Use MPS format to capture full model detail.
\ Signature: 0xc60ddf5a1d6698dd
Minimize
  - 2.0297176123570319e+07 coef_ajuste + 1.0144814830917474e+07 Constant + [
   2.0304725392113201e+07 coef_ajuste ^2 ] / 2 
Subject To
Bounds
 coef_ajuste <= 1
 Constant = 1
End
